NAME: rue_25_6
TYPE: TSP
DIMENSION: 25
EDGE_WEIGHT_TYPE: EUC_2D
NODE_COORD_SECTION
1 78 87
2 66 46
3 71 16
4 11 58
5 16 95
6 73 43
7 18 86
8 35 94
9 34 40
10 88 33
11 41 92
12 45 75
13 99 3
14 41 8
15 55 96
16 68 10
17 61 85
18 33 32
19 91 81
20 68 97
21 48 64
22 37 83
23 97 61
24 44 76
25 61 51
